10 15 1
5 1 2 2 1 4 1 3 8 6 6 10 7 10 1 9 5 1 12 1 
6 2 1 5 2 2 1 3 4 1 5 4 3 6 8 8 8 7 8 2 10 3 9 4 1 11 1 
6 2 2 2 1 5 1 4 4 1 5 3 2 6 10 7 6 1 9 4 1 11 4 
5 2 1 2 2 4 1 3 3 3 7 9 8 10 6 8 1 10 3 2 12 1 11 1 
5 1 1 5 2 4 5 3 5 3 6 10 8 9 7 6 2 10 3 9 5 2 11 4 12 1 
7 2 2 3 1 5 1 4 1 1 5 3 3 8 9 6 7 7 6 1 9 2 2 12 1 11 2 1 13 3 
5 1 1 4 2 3 1 4 1 2 6 10 8 6 2 9 3 10 3 2 12 4 11 3 
7 2 1 2 2 1 2 3 1 4 3 1 5 1 2 7 7 8 9 2 9 4 10 1 2 11 5 12 1 3 15 4 14 5 13 4 
6 1 1 3 2 4 1 3 5 1 5 5 2 8 8 7 7 2 10 2 9 5 1 12 1 
5 1 2 4 2 4 2 3 5 2 7 10 6 6 1 10 2 1 12 4 
